# Objective value = 8792.29
I_0_0 1251
I_0_1 1762
I_0_2 1.5109999999999998e+03
I_0_3 1.3200000000000002e+03
I_0_4 1.5940000000000002e+03
I_0_5 1.3500000000000002e+03
I_0_6 1.8610000000000002e+03
I_1_0 198
I_1_1 9.9000000000000213e+01
I_1_2 1.9800000000000023e+02
I_1_3 198
I_1_4 198
I_1_5 99
I_1_6 0
I_2_0 78
I_2_1 -2.1649348980190553e-14
I_2_2 7.8000000000000028e+01
I_2_3 78
I_2_4 0
I_2_5 78
I_2_6 0
I_3_0 150
I_3_1 75
I_3_2 -1.1368683772161603e-13
I_3_3 1.5000000000000003e+02
I_3_4 7.5000000000000043e+01
I_3_5 1.4999999999999994e+02
I_3_6 7.4999999999999929e+01
I_4_0 69
I_4_1 -7.66053886991358e-15
I_4_2 69
I_4_3 0
I_4_4 69
I_4_5 69
I_4_6 0
I_5_0 110
I_5_1 5.4999999999999993e+01
I_5_2 0
I_5_3 1.1000000000000004e+02
I_5_4 5.5000000000000028e+01
I_5_5 110
I_5_6 55
I_6_0 51
I_6_1 -2.8310687127941492e-15
I_6_2 51
I_6_3 51
I_6_4 0
I_6_5 5.0999999999999986e+01
I_6_6 0
I_7_0 43
I_7_1 -1.1934897514720433e-14
I_7_2 4.3000000000000021e+01
I_7_3 43
I_7_4 0
I_7_5 43
I_7_6 0
I_8_0 19
I_8_1 0
I_8_2 19
I_8_3 19
I_8_4 0
I_8_5 19
I_8_6 0
I_9_0 12
I_9_1 0
I_9_2 12
I_9_3 12
I_9_4 0
I_9_5 1.1999999999999996e+01
I_9_6 0
I_10_0 10
I_10_1 -2.7755575615628914e-15
I_10_2 1.0000000000000004e+01
I_10_3 10
I_10_4 0
I_10_5 10
I_10_6 0
q_1_0 2.19824158875781e-13
q_1_1 1.9800000000000011e+02
q_1_2 9.8999999999999773e+01
q_1_3 99
q_1_4 0
q_1_5 0
q_2_0 -2.1649348980190553e-14
q_2_1 1.5600000000000006e+02
q_2_2 7.7999999999999972e+01
q_2_3 0
q_2_4 156
q_2_5 0
q_3_0 -2.0816681711721685e-15
q_3_1 -1.0658141036401503e-14
q_3_2 2.2500000000000014e+02
q_3_3 0
q_3_4 1.4999999999999991e+02
q_3_5 0
q_4_0 -7.66053886991358e-15
q_4_1 138
q_4_2 0
q_4_3 138
q_4_4 69
q_4_5 0
q_5_0 -6.1062266354383610e-15
q_5_1 1.0658141036401503e-14
q_5_2 1.6500000000000006e+02
q_5_3 -7.1054273576010019e-15
q_5_4 1.0999999999999997e+02
q_5_5 0
q_6_0 -2.8310687127941492e-15
q_6_1 102
q_6_2 51
q_6_3 0
q_6_4 1.0199999999999999e+02
q_6_5 1.4210854715202004e-14
q_7_0 -1.1934897514720433e-14
q_7_1 8.6000000000000028e+01
q_7_2 4.2999999999999979e+01
q_7_3 0
q_7_4 86
q_7_5 0
q_8_0 0
q_8_1 38
q_8_2 19
q_8_3 0
q_8_4 38
q_8_5 0
q_9_0 0
q_9_1 24
q_9_2 12
q_9_3 0
q_9_4 2.3999999999999996e+01
q_9_5 3.5527136788005009e-15
q_10_0 -2.7755575615628914e-15
q_10_1 2.0000000000000007e+01
q_10_2 9.9999999999999964e+00
q_10_3 0
q_10_4 20
q_10_5 0
y_0_0 1.9984014443252818e-15
y_0_1 1
y_0_2 1
y_0_3 1
y_0_4 1
y_0_5 0
y_1_0 2.2204460492503131e-15
y_1_1 1.0000000000000013e+00
y_1_2 1
y_1_3 1
y_1_4 0
y_1_5 0
y_2_0 -2.7755575615628914e-16
y_2_1 1.0000000000000004e+00
y_2_2 1
y_2_3 0
y_2_4 1
y_2_5 0
y_3_0 -2.7755575615628914e-17
y_3_1 0
y_3_2 1.0000000000000004e+00
y_3_3 0
y_3_4 1
y_3_5 0
y_4_0 -1.1102230246251565e-16
y_4_1 1
y_4_2 0
y_4_3 1
y_4_4 1
y_4_5 0
y_5_0 -1.1102230246251565e-16
y_5_1 0
y_5_2 1.0000000000000002e+00
y_5_3 0
y_5_4 1
y_5_5 0
y_6_0 -5.5511151231257827e-17
y_6_1 1
y_6_2 1
y_6_3 0
y_6_4 9.9999999999999967e-01
y_6_5 0
y_7_0 -2.7755575615628914e-16
y_7_1 1.0000000000000004e+00
y_7_2 1
y_7_3 0
y_7_4 1
y_7_5 0
y_8_0 0
y_8_1 1
y_8_2 1
y_8_3 0
y_8_4 1
y_8_5 0
y_9_0 0
y_9_1 1
y_9_2 1
y_9_3 0
y_9_4 9.9999999999999967e-01
y_9_5 0
y_10_0 -2.7755575615628914e-16
y_10_1 1.0000000000000004e+00
y_10_2 1
y_10_3 0
y_10_4 1
y_10_5 0
x_0_1_0 4.4408920985006262e-15
x_0_1_1 1.0000000000000013e+00
x_0_1_2 1.0000000000000004e+00
x_0_1_3 1
x_0_1_4 2.3592239273284576e-16
x_0_1_5 0
x_0_2_0 0
x_0_2_1 0
x_0_2_2 0
x_0_2_3 0
x_0_2_4 0
x_0_2_5 0
x_0_3_0 0
x_0_3_1 0
x_0_3_2 0
x_0_3_3 0
x_0_3_4 0
x_0_3_5 0
x_0_4_0 5.5511151231257827e-17
x_0_4_1 1
x_0_4_2 0
x_0_4_3 1
x_0_4_4 9.9999999999999978e-01
x_0_4_5 0
x_0_5_0 0
x_0_5_1 0
x_0_5_2 0
x_0_5_3 0
x_0_5_4 0
x_0_5_5 0
x_0_6_0 0
x_0_6_1 0
x_0_6_2 0
x_0_6_3 0
x_0_6_4 0
x_0_6_5 0
x_0_7_0 0
x_0_7_1 0
x_0_7_2 0
x_0_7_3 0
x_0_7_4 0
x_0_7_5 0
x_0_8_0 0
x_0_8_1 -1.7763568394002505e-15
x_0_8_2 -2.7755575615628914e-17
x_0_8_3 0
x_0_8_4 1
x_0_8_5 0
x_0_9_0 0
x_0_9_1 0
x_0_9_2 0
x_0_9_3 0
x_0_9_4 0
x_0_9_5 0
x_0_10_0 0
x_0_10_1 0
x_0_10_2 1
x_0_10_3 0
x_0_10_4 0
x_0_10_5 0
x_1_2_0 0
x_1_2_1 0
x_1_2_2 0
x_1_2_3 0
x_1_2_4 0
x_1_2_5 0
x_1_3_0 0
x_1_3_1 0
x_1_3_2 0
x_1_3_3 0
x_1_3_4 0
x_1_3_5 0
x_1_4_0 -1.6653345369377348e-16
x_1_4_1 0
x_1_4_2 0
x_1_4_3 1
x_1_4_4 0
x_1_4_5 0
x_1_5_0 0
x_1_5_1 0
x_1_5_2 0
x_1_5_3 0
x_1_5_4 0
x_1_5_5 0
x_1_6_0 0
x_1_6_1 0
x_1_6_2 0
x_1_6_3 0
x_1_6_4 0
x_1_6_5 0
x_1_7_0 0
x_1_7_1 0
x_1_7_2 0
x_1_7_3 0
x_1_7_4 0
x_1_7_5 0
x_1_8_0 0
x_1_8_1 1.0000000000000018e+00
x_1_8_2 9.9999999999999956e-01
x_1_8_3 0
x_1_8_4 -2.3592239273284576e-16
x_1_8_5 0
x_1_9_0 0
x_1_9_1 0
x_1_9_2 0
x_1_9_3 0
x_1_9_4 0
x_1_9_5 0
x_1_10_0 0
x_1_10_1 0
x_1_10_2 0
x_1_10_3 0
x_1_10_4 0
x_1_10_5 0
x_2_3_0 0
x_2_3_1 0
x_2_3_2 0
x_2_3_3 0
x_2_3_4 0
x_2_3_5 0
x_2_4_0 0
x_2_4_1 0
x_2_4_2 0
x_2_4_3 0
x_2_4_4 0
x_2_4_5 0
x_2_5_0 0
x_2_5_1 0
x_2_5_2 0
x_2_5_3 0
x_2_5_4 0
x_2_5_5 0
x_2_6_0 0
x_2_6_1 0
x_2_6_2 0
x_2_6_3 0
x_2_6_4 0
x_2_6_5 0
x_2_7_0 -2.7755575615628914e-16
x_2_7_1 1.0000000000000004e+00
x_2_7_2 1
x_2_7_3 0
x_2_7_4 1.0000000000000002e+00
x_2_7_5 0
x_2_8_0 0
x_2_8_1 0
x_2_8_2 0
x_2_8_3 0
x_2_8_4 0
x_2_8_5 0
x_2_9_0 0
x_2_9_1 0
x_2_9_2 0
x_2_9_3 0
x_2_9_4 0
x_2_9_5 0
x_2_10_0 -2.7755575615628914e-16
x_2_10_1 1.0000000000000004e+00
x_2_10_2 1
x_2_10_3 0
x_2_10_4 9.9999999999999989e-01
x_2_10_5 0
x_3_4_0 0
x_3_4_1 0
x_3_4_2 0
x_3_4_3 0
x_3_4_4 0
x_3_4_5 0
x_3_5_0 0
x_3_5_1 0
x_3_5_2 0
x_3_5_3 0
x_3_5_4 0
x_3_5_5 0
x_3_6_0 -5.5511151231257827e-17
x_3_6_1 0
x_3_6_2 1.0000000000000004e+00
x_3_6_3 0
x_3_6_4 1
x_3_6_5 0
x_3_7_0 0
x_3_7_1 0
x_3_7_2 0
x_3_7_3 0
x_3_7_4 0
x_3_7_5 0
x_3_8_0 0
x_3_8_1 0
x_3_8_2 1.0000000000000004e+00
x_3_8_3 0
x_3_8_4 1
x_3_8_5 0
x_3_9_0 0
x_3_9_1 0
x_3_9_2 0
x_3_9_3 0
x_3_9_4 0
x_3_9_5 0
x_3_10_0 0
x_3_10_1 0
x_3_10_2 0
x_3_10_3 0
x_3_10_4 0
x_3_10_5 0
x_4_5_0 0
x_4_5_1 0
x_4_5_2 0
x_4_5_3 0
x_4_5_4 0
x_4_5_5 0
x_4_6_0 0
x_4_6_1 0
x_4_6_2 0
x_4_6_3 0
x_4_6_4 0
x_4_6_5 0
x_4_7_0 0
x_4_7_1 0
x_4_7_2 0
x_4_7_3 0
x_4_7_4 0
x_4_7_5 0
x_4_8_0 0
x_4_8_1 0
x_4_8_2 0
x_4_8_3 0
x_4_8_4 0
x_4_8_5 0
x_4_9_0 0
x_4_9_1 0
x_4_9_2 0
x_4_9_3 0
x_4_9_4 0
x_4_9_5 0
x_4_10_0 -2.7755575615628914e-16
x_4_10_1 1
x_4_10_2 0
x_4_10_3 0
x_4_10_4 1.0000000000000002e+00
x_4_10_5 0
x_5_6_0 0
x_5_6_1 -5.5511151231257827e-17
x_5_6_2 -5.5511151231257827e-17
x_5_6_3 0
x_5_6_4 0
x_5_6_5 0
x_5_7_0 -1.6653345369377348e-16
x_5_7_1 2.2204460492503131e-16
x_5_7_2 1
x_5_7_3 0
x_5_7_4 1.0000000000000002e+00
x_5_7_5 0
x_5_8_0 0
x_5_8_1 0
x_5_8_2 0
x_5_8_3 0
x_5_8_4 0
x_5_8_5 0
x_5_9_0 -1.1102230246251565e-16
x_5_9_1 -5.5511151231257827e-17
x_5_9_2 1.0000000000000004e+00
x_5_9_3 0
x_5_9_4 1
x_5_9_5 0
x_5_10_0 0
x_5_10_1 -5.5511151231257827e-17
x_5_10_2 5.5511151231257827e-17
x_5_10_3 0
x_5_10_4 0
x_5_10_5 0
x_6_7_0 0
x_6_7_1 0
x_6_7_2 0
x_6_7_3 0
x_6_7_4 0
x_6_7_5 0
x_6_8_0 0
x_6_8_1 1.0000000000000002e+00
x_6_8_2 0
x_6_8_3 0
x_6_8_4 0
x_6_8_5 0
x_6_9_0 0
x_6_9_1 1
x_6_9_2 9.9999999999999956e-01
x_6_9_3 0
x_6_9_4 9.9999999999999933e-01
x_6_9_5 0
x_6_10_0 0
x_6_10_1 0
x_6_10_2 0
x_6_10_3 0
x_6_10_4 0
x_6_10_5 0
x_7_8_0 0
x_7_8_1 0
x_7_8_2 0
x_7_8_3 0
x_7_8_4 0
x_7_8_5 0
x_7_9_0 2.7755575615628914e-17
x_7_9_1 1
x_7_9_2 -5.5511151231257827e-17
x_7_9_3 0
x_7_9_4 0
x_7_9_5 0
x_7_10_0 0
x_7_10_1 0
x_7_10_2 0
x_7_10_3 0
x_7_10_4 0
x_7_10_5 0
x_8_9_0 0
x_8_9_1 0
x_8_9_2 0
x_8_9_3 0
x_8_9_4 0
x_8_9_5 0
x_8_10_0 0
x_8_10_1 0
x_8_10_2 0
x_8_10_3 0
x_8_10_4 0
x_8_10_5 0
x_9_10_0 0
x_9_10_1 0
x_9_10_2 0
x_9_10_3 0
x_9_10_4 0
x_9_10_5 0
